(set-info :smt-lib-version 2.6)
(set-logic QF_BV)
(set-info :source |
Hand-crafted bit-vector benchmarks.  Some are from the SVC benchmark suite.
Contributed by Vijay Ganesh (vganesh@stanford.edu).  Translated into SMT-LIB
format by Clark Barrett using CVC3.

|)
(set-info :category "crafted")
(set-info :status unsat)
(declare-fun B0 () (_ BitVec 32))
(declare-fun B1 () (_ BitVec 32))
(declare-fun B2 () (_ BitVec 32))
(declare-fun B3 () (_ BitVec 32))
(declare-fun B4 () (_ BitVec 32))
(declare-fun C1 () (_ BitVec 32))
(declare-fun C2 () (_ BitVec 32))
(declare-fun C3 () (_ BitVec 32))
(declare-fun C4 () (_ BitVec 32))
(declare-fun C5 () (_ BitVec 32))
(declare-fun v () (_ BitVec 32))
(declare-fun x () (_ BitVec 8))
(declare-fun y () (_ BitVec 8))
(declare-fun z () (_ BitVec 8))
(declare-fun k () (_ BitVec 31))
(assert (= x (_ bv15 8)))
(assert (= B0 (_ bv1431655765 32)))
(assert (= B1 (_ bv858993459 32)))
(assert (= B2 (_ bv252645135 32)))
(assert (= B3 (_ bv16711935 32)))
(assert (= B4 (_ bv65535 32)))
(assert (= k (_ bv0 31)))
(assert (= v (_ bv252645135 32)))
(assert (= C1 (bvadd (bvand (bvlshr v (_ bv1 32)) B0) (bvand v B0))))
(assert (= C2 (bvadd (bvand (bvlshr C1 (_ bv2 32)) B1) (bvand C1 B1))))
(assert (= C3 (bvadd (bvand (bvlshr C2 (_ bv4 32)) B2) (bvand C2 B2))))
(assert (= C4 (bvadd (bvand (bvlshr C3 (_ bv8 32)) B3) (bvand C3 B3))))
(assert (= C5 (bvadd (bvand (bvlshr C4 (_ bv16 32)) B4) (bvand C4 B4))))
(assert (not (= C5 (bvadd (concat k ((_ extract 31 31) v)) (bvadd (concat k ((_ extract 30 30) v)) (bvadd (concat k ((_ extract 29 29) v)) (bvadd (concat k ((_ extract 28 28) v)) (bvadd (concat k ((_ extract 27 27) v)) (bvadd (concat k ((_ extract 26 26) v)) (bvadd (concat k ((_ extract 25 25) v)) (bvadd (concat k ((_ extract 24 24) v)) (bvadd (concat k ((_ extract 23 23) v)) (bvadd (concat k ((_ extract 22 22) v)) (bvadd (concat k ((_ extract 21 21) v)) (bvadd (concat k ((_ extract 20 20) v)) (bvadd (concat k ((_ extract 19 19) v)) (bvadd (concat k ((_ extract 18 18) v)) (bvadd (concat k ((_ extract 17 17) v)) (bvadd (concat k ((_ extract 16 16) v)) (bvadd (concat k ((_ extract 15 15) v)) (bvadd (concat k ((_ extract 14 14) v)) (bvadd (concat k ((_ extract 13 13) v)) (bvadd (concat k ((_ extract 12 12) v)) (bvadd (concat k ((_ extract 11 11) v)) (bvadd (concat k ((_ extract 10 10) v)) (bvadd (concat k ((_ extract 9 9) v)) (bvadd (concat k ((_ extract 8 8) v)) (bvadd (concat k ((_ extract 7 7) v)) (bvadd (concat k ((_ extract 6 6) v)) (bvadd (concat k ((_ extract 5 5) v)) (bvadd (concat k ((_ extract 4 4) v)) (bvadd (concat k ((_ extract 3 3) v)) (bvadd (concat k ((_ extract 2 2) v)) (bvadd (concat k ((_ extract 1 1) v)) (concat k ((_ extract 0 0) v))))))))))))))))))))))))))))))))))))
(check-sat)
(exit)
